# Silicon primitive cell
acell 1 1 1   # Lattice parameters 
rprim  3.31 5.74 0.00
      -3.31 5.74 0.00
       0.00 0.00 30.00

ntypat 1                 # One type of atom
znucl  14                 # Silicon atoms

natom 2                 # Two atoms in the unit cell
typat 1 1                 # Both atoms are Silicon
xred 
 0.33 0.33 0.00
 0.67 0.67 0.00

  
  pseudos "/home/hrishi/abinit-10.0.5/Pseudopotentials/Si.psp8"  # Path to your pseudopotential file


# Self-Consistent Field calculation for cell

ndtset 1

# Dataset 1 (SCF calculation)
kptopt1 1               # Automatic k-point grid generation
ngkpt1 6 6 1            # 6x6x1 k-point grid
nshiftk1 1
shiftk1 0.0 0.0 0.5

optcell 0                # Do not optimize cell parameters
ionmov 2                 # BFGS algorithm for atomic positions
nstep 100                # Maximum number of steps


ecut1 30                # Kinetic energy cutoff (in Hartree)
nband1 8                # Number of bands
occopt1 3               # Occupation: Fermi-Dirac
tsmear1 0.01            # Smearing temperature (in Hartree)
toldfe1 1.0d-8          # Convergence criterion for total energy

prtden1 1               # Print the density
prtwf1 1                # Print the wavefunctions

# Common parameters
istwfk *1
diemac 10.0
diemix 0.7



