
ndtset 2

#Definition of the unit cell
acell 1 1 1         
rprim  22.17 3.77 0.00
      -2.17 3.77 0.00
       0.00 0.00 30.00

#Definition of the atom types
ntypat 2          
znucl 5 7          

 pseudos "/home/hrishi/abinit-10.0.5/Pseudopotentials/B.psp8 , /home/hrishi/abinit-10.0.5/Pseudopotentials/N.psp8"
 
#Definition of the atoms
natom 4           
typat 1 2 1 1         
xred              
 0.33 0.67 0.25
 0.67 0.33 0.25
 0.67 0.33 0.75
 0.33 0.67 0.75


ecut 50         

#Definition of the SCF procedure
nstep 25          
diemac 10.0       

#Dataset 1 : usual self-consistent calculation
kptopt1 1          
nshiftk1 4
shiftk1  0.5 0.5 0.5  
         0.5 0.0 0.0
         0.0 0.5 0.0
         0.0 0.0 0.5
ngkpt1  4 4 1
prtden1  1         
toldfe1  1.0d-8    

#Dataset 2 : the band structure
iscf2    -2
getden2  -1
kptopt2  -3 
nband2   8
ndivsm2   10   
kptbounds2  0.5  0.0  0.0 
            0.0  0.0  0.0 
            0.0  0.5  0.5 
            1.0  1.0  1.0 
tolwfr2  1.0d-12
enunit2  1            


